p tw 30 122
e 0 1
e 0 6
e 0 7
e 0 9
e 0 10
e 0 16
e 0 22
e 0 26
e 1 10
e 1 11
e 1 12
e 1 28
e 2 7
e 2 10
e 2 11
e 2 14
e 2 17
e 2 18
e 2 21
e 2 23
e 3 5
e 3 7
e 3 8
e 3 11
e 3 12
e 3 28
e 4 8
e 4 11
e 4 14
e 4 21
e 4 22
e 4 25
e 5 12
e 5 16
e 5 18
e 5 19
e 5 22
e 5 28
e 6 10
e 6 11
e 6 13
e 6 16
e 6 17
e 6 22
e 6 23
e 6 25
e 7 9
e 7 10
e 7 17
e 7 22
e 7 24
e 7 25
e 7 27
e 7 29
e 8 15
e 8 17
e 8 18
e 8 25
e 9 10
e 9 13
e 9 18
e 9 21
e 9 22
e 9 23
e 9 28
e 9 29
e 10 11
e 10 12
e 10 13
e 10 16
e 10 24
e 10 26
e 11 12
e 11 13
e 11 27
e 12 13
e 12 21
e 12 23
e 13 15
e 13 17
e 13 18
e 13 20
e 13 21
e 13 22
e 13 24
e 13 25
e 13 27
e 14 19
e 14 23
e 14 26
e 15 16
e 15 17
e 15 18
e 15 26
e 16 18
e 16 26
e 16 27
e 17 21
e 17 22
e 17 23
e 17 26
e 17 29
e 18 23
e 18 24
e 18 25
e 18 28
e 19 22
e 20 28
e 20 29
e 21 26
e 21 27
e 21 28
e 21 29
e 22 26
e 23 25
e 23 26
e 23 28
e 24 27
e 25 27
e 26 29
e 27 28
e 28 29
